g9 0 1 0 0 20170614 0 4 0 240	# problem qr3dbd
 127 0 1 0 0	# vars, constraints, objectives, ranges, eqns
 0 1	# nonlinear constraints, objectives
 0 0	# network constraints: nonlinear, linear
 0 127 0	# nonlinear vars in constraints, objectives, both
 0 0 0 1	# linear network variables; functions; arith, flags
 0 0 0 0 0	# discrete variables: binary, integer, nonlinear (b,c,o)
 0 127	# nonzeros in Jacobian, gradients
 0 0	# max name lengths: constraints, variables
 0 0 0 0 0	# common exprs: b,c,o,c1,o1
b
3
3
3
3
3
3
3
3
3
3
3
3
3
3
3
3
3
3
3
3
3
3
3
3
3
3
3
3
3
3
3
3
3
3
3
3
3
3
3
3
3
3
3
3
3
3
3
3
3
3
3
3
3
3
3
3
3
3
3
3
3
3
3
3
3
3
3
3
3
3
3
3
3
3
3
3
3
3
3
3
3
3
3
3
3
3
3
3
3
3
3
3
3
3
3
3
3
3
3
3
2 0
3
3
2 0
3
3
2 0
3
3
2 0
3
3
2 0
3
3
2 0
3
3
2 0
3
3
2 0
3
3
2 0
3
2 0
x28
0 1
11 1
22 1
33 1
44 1
55 1
66 1
77 1
88 1
99 1
100 0.2
103 0.4
104 -0.1
106 0.6
107 -0.2
109 0.8
110 -0.3
112 1
113 -0.4
115 1.2
116 -0.5
118 1.4
119 -0.6
121 1.6
122 -0.7
124 1.8
125 -0.8
126 20
O0 0
o54
155
o5
o0
n-1
o54
10
o2
v0
v0
o2
v1
v1
o2
v2
v2
o2
v3
v3
o2
v4
v4
o2
v5
v5
o2
v6
v6
o2
v7
v7
o2
v8
v8
o2
v9
v9
n2
o5
o54
10
o2
v0
v10
o2
v1
v11
o2
v2
v12
o2
v3
v13
o2
v4
v14
o2
v5
v15
o2
v6
v16
o2
v7
v17
o2
v8
v18
o2
v9
v19
n2
o5
o54
10
o2
v0
v20
o2
v1
v21
o2
v2
v22
o2
v3
v23
o2
v4
v24
o2
v5
v25
o2
v6
v26
o2
v7
v27
o2
v8
v28
o2
v9
v29
n2
o5
o54
10
o2
v0
v30
o2
v1
v31
o2
v2
v32
o2
v3
v33
o2
v4
v34
o2
v5
v35
o2
v6
v36
o2
v7
v37
o2
v8
v38
o2
v9
v39
n2
o5
o54
10
o2
v0
v40
o2
v1
v41
o2
v2
v42
o2
v3
v43
o2
v4
v44
o2
v5
v45
o2
v6
v46
o2
v7
v47
o2
v8
v48
o2
v9
v49
n2
o5
o54
10
o2
v0
v50
o2
v1
v51
o2
v2
v52
o2
v3
v53
o2
v4
v54
o2
v5
v55
o2
v6
v56
o2
v7
v57
o2
v8
v58
o2
v9
v59
n2
o5
o54
10
o2
v0
v60
o2
v1
v61
o2
v2
v62
o2
v3
v63
o2
v4
v64
o2
v5
v65
o2
v6
v66
o2
v7
v67
o2
v8
v68
o2
v9
v69
n2
o5
o54
10
o2
v0
v70
o2
v1
v71
o2
v2
v72
o2
v3
v73
o2
v4
v74
o2
v5
v75
o2
v6
v76
o2
v7
v77
o2
v8
v78
o2
v9
v79
n2
o5
o54
10
o2
v0
v80
o2
v1
v81
o2
v2
v82
o2
v3
v83
o2
v4
v84
o2
v5
v85
o2
v6
v86
o2
v7
v87
o2
v8
v88
o2
v9
v89
n2
o5
o54
10
o2
v0
v90
o2
v1
v91
o2
v2
v92
o2
v3
v93
o2
v4
v94
o2
v5
v95
o2
v6
v96
o2
v7
v97
o2
v8
v98
o2
v9
v99
n2
o5
o0
n-1
o54
10
o2
v10
v10
o2
v11
v11
o2
v12
v12
o2
v13
v13
o2
v14
v14
o2
v15
v15
o2
v16
v16
o2
v17
v17
o2
v18
v18
o2
v19
v19
n2
o5
o54
10
o2
v10
v20
o2
v11
v21
o2
v12
v22
o2
v13
v23
o2
v14
v24
o2
v15
v25
o2
v16
v26
o2
v17
v27
o2
v18
v28
o2
v19
v29
n2
o5
o54
10
o2
v10
v30
o2
v11
v31
o2
v12
v32
o2
v13
v33
o2
v14
v34
o2
v15
v35
o2
v16
v36
o2
v17
v37
o2
v18
v38
o2
v19
v39
n2
o5
o54
10
o2
v10
v40
o2
v11
v41
o2
v12
v42
o2
v13
v43
o2
v14
v44
o2
v15
v45
o2
v16
v46
o2
v17
v47
o2
v18
v48
o2
v19
v49
n2
o5
o54
10
o2
v10
v50
o2
v11
v51
o2
v12
v52
o2
v13
v53
o2
v14
v54
o2
v15
v55
o2
v16
v56
o2
v17
v57
o2
v18
v58
o2
v19
v59
n2
o5
o54
10
o2
v10
v60
o2
v11
v61
o2
v12
v62
o2
v13
v63
o2
v14
v64
o2
v15
v65
o2
v16
v66
o2
v17
v67
o2
v18
v68
o2
v19
v69
n2
o5
o54
10
o2
v10
v70
o2
v11
v71
o2
v12
v72
o2
v13
v73
o2
v14
v74
o2
v15
v75
o2
v16
v76
o2
v17
v77
o2
v18
v78
o2
v19
v79
n2
o5
o54
10
o2
v10
v80
o2
v11
v81
o2
v12
v82
o2
v13
v83
o2
v14
v84
o2
v15
v85
o2
v16
v86
o2
v17
v87
o2
v18
v88
o2
v19
v89
n2
o5
o54
10
o2
v10
v90
o2
v11
v91
o2
v12
v92
o2
v13
v93
o2
v14
v94
o2
v15
v95
o2
v16
v96
o2
v17
v97
o2
v18
v98
o2
v19
v99
n2
o5
o0
n-1
o54
10
o2
v20
v20
o2
v21
v21
o2
v22
v22
o2
v23
v23
o2
v24
v24
o2
v25
v25
o2
v26
v26
o2
v27
v27
o2
v28
v28
o2
v29
v29
n2
o5
o54
10
o2
v20
v30
o2
v21
v31
o2
v22
v32
o2
v23
v33
o2
v24
v34
o2
v25
v35
o2
v26
v36
o2
v27
v37
o2
v28
v38
o2
v29
v39
n2
o5
o54
10
o2
v20
v40
o2
v21
v41
o2
v22
v42
o2
v23
v43
o2
v24
v44
o2
v25
v45
o2
v26
v46
o2
v27
v47
o2
v28
v48
o2
v29
v49
n2
o5
o54
10
o2
v20
v50
o2
v21
v51
o2
v22
v52
o2
v23
v53
o2
v24
v54
o2
v25
v55
o2
v26
v56
o2
v27
v57
o2
v28
v58
o2
v29
v59
n2
o5
o54
10
o2
v20
v60
o2
v21
v61
o2
v22
v62
o2
v23
v63
o2
v24
v64
o2
v25
v65
o2
v26
v66
o2
v27
v67
o2
v28
v68
o2
v29
v69
n2
o5
o54
10
o2
v20
v70
o2
v21
v71
o2
v22
v72
o2
v23
v73
o2
v24
v74
o2
v25
v75
o2
v26
v76
o2
v27
v77
o2
v28
v78
o2
v29
v79
n2
o5
o54
10
o2
v20
v80
o2
v21
v81
o2
v22
v82
o2
v23
v83
o2
v24
v84
o2
v25
v85
o2
v26
v86
o2
v27
v87
o2
v28
v88
o2
v29
v89
n2
o5
o54
10
o2
v20
v90
o2
v21
v91
o2
v22
v92
o2
v23
v93
o2
v24
v94
o2
v25
v95
o2
v26
v96
o2
v27
v97
o2
v28
v98
o2
v29
v99
n2
o5
o0
n-1
o54
10
o2
v30
v30
o2
v31
v31
o2
v32
v32
o2
v33
v33
o2
v34
v34
o2
v35
v35
o2
v36
v36
o2
v37
v37
o2
v38
v38
o2
v39
v39
n2
o5
o54
10
o2
v30
v40
o2
v31
v41
o2
v32
v42
o2
v33
v43
o2
v34
v44
o2
v35
v45
o2
v36
v46
o2
v37
v47
o2
v38
v48
o2
v39
v49
n2
o5
o54
10
o2
v30
v50
o2
v31
v51
o2
v32
v52
o2
v33
v53
o2
v34
v54
o2
v35
v55
o2
v36
v56
o2
v37
v57
o2
v38
v58
o2
v39
v59
n2
o5
o54
10
o2
v30
v60
o2
v31
v61
o2
v32
v62
o2
v33
v63
o2
v34
v64
o2
v35
v65
o2
v36
v66
o2
v37
v67
o2
v38
v68
o2
v39
v69
n2
o5
o54
10
o2
v30
v70
o2
v31
v71
o2
v32
v72
o2
v33
v73
o2
v34
v74
o2
v35
v75
o2
v36
v76
o2
v37
v77
o2
v38
v78
o2
v39
v79
n2
o5
o54
10
o2
v30
v80
o2
v31
v81
o2
v32
v82
o2
v33
v83
o2
v34
v84
o2
v35
v85
o2
v36
v86
o2
v37
v87
o2
v38
v88
o2
v39
v89
n2
o5
o54
10
o2
v30
v90
o2
v31
v91
o2
v32
v92
o2
v33
v93
o2
v34
v94
o2
v35
v95
o2
v36
v96
o2
v37
v97
o2
v38
v98
o2
v39
v99
n2
o5
o0
n-1
o54
10
o2
v40
v40
o2
v41
v41
o2
v42
v42
o2
v43
v43
o2
v44
v44
o2
v45
v45
o2
v46
v46
o2
v47
v47
o2
v48
v48
o2
v49
v49
n2
o5
o54
10
o2
v40
v50
o2
v41
v51
o2
v42
v52
o2
v43
v53
o2
v44
v54
o2
v45
v55
o2
v46
v56
o2
v47
v57
o2
v48
v58
o2
v49
v59
n2
o5
o54
10
o2
v40
v60
o2
v41
v61
o2
v42
v62
o2
v43
v63
o2
v44
v64
o2
v45
v65
o2
v46
v66
o2
v47
v67
o2
v48
v68
o2
v49
v69
n2
o5
o54
10
o2
v40
v70
o2
v41
v71
o2
v42
v72
o2
v43
v73
o2
v44
v74
o2
v45
v75
o2
v46
v76
o2
v47
v77
o2
v48
v78
o2
v49
v79
n2
o5
o54
10
o2
v40
v80
o2
v41
v81
o2
v42
v82
o2
v43
v83
o2
v44
v84
o2
v45
v85
o2
v46
v86
o2
v47
v87
o2
v48
v88
o2
v49
v89
n2
o5
o54
10
o2
v40
v90
o2
v41
v91
o2
v42
v92
o2
v43
v93
o2
v44
v94
o2
v45
v95
o2
v46
v96
o2
v47
v97
o2
v48
v98
o2
v49
v99
n2
o5
o0
n-1
o54
10
o2
v50
v50
o2
v51
v51
o2
v52
v52
o2
v53
v53
o2
v54
v54
o2
v55
v55
o2
v56
v56
o2
v57
v57
o2
v58
v58
o2
v59
v59
n2
o5
o54
10
o2
v50
v60
o2
v51
v61
o2
v52
v62
o2
v53
v63
o2
v54
v64
o2
v55
v65
o2
v56
v66
o2
v57
v67
o2
v58
v68
o2
v59
v69
n2
o5
o54
10
o2
v50
v70
o2
v51
v71
o2
v52
v72
o2
v53
v73
o2
v54
v74
o2
v55
v75
o2
v56
v76
o2
v57
v77
o2
v58
v78
o2
v59
v79
n2
o5
o54
10
o2
v50
v80
o2
v51
v81
o2
v52
v82
o2
v53
v83
o2
v54
v84
o2
v55
v85
o2
v56
v86
o2
v57
v87
o2
v58
v88
o2
v59
v89
n2
o5
o54
10
o2
v50
v90
o2
v51
v91
o2
v52
v92
o2
v53
v93
o2
v54
v94
o2
v55
v95
o2
v56
v96
o2
v57
v97
o2
v58
v98
o2
v59
v99
n2
o5
o0
n-1
o54
10
o2
v60
v60
o2
v61
v61
o2
v62
v62
o2
v63
v63
o2
v64
v64
o2
v65
v65
o2
v66
v66
o2
v67
v67
o2
v68
v68
o2
v69
v69
n2
o5
o54
10
o2
v60
v70
o2
v61
v71
o2
v62
v72
o2
v63
v73
o2
v64
v74
o2
v65
v75
o2
v66
v76
o2
v67
v77
o2
v68
v78
o2
v69
v79
n2
o5
o54
10
o2
v60
v80
o2
v61
v81
o2
v62
v82
o2
v63
v83
o2
v64
v84
o2
v65
v85
o2
v66
v86
o2
v67
v87
o2
v68
v88
o2
v69
v89
n2
o5
o54
10
o2
v60
v90
o2
v61
v91
o2
v62
v92
o2
v63
v93
o2
v64
v94
o2
v65
v95
o2
v66
v96
o2
v67
v97
o2
v68
v98
o2
v69
v99
n2
o5
o0
n-1
o54
10
o2
v70
v70
o2
v71
v71
o2
v72
v72
o2
v73
v73
o2
v74
v74
o2
v75
v75
o2
v76
v76
o2
v77
v77
o2
v78
v78
o2
v79
v79
n2
o5
o54
10
o2
v70
v80
o2
v71
v81
o2
v72
v82
o2
v73
v83
o2
v74
v84
o2
v75
v85
o2
v76
v86
o2
v77
v87
o2
v78
v88
o2
v79
v89
n2
o5
o54
10
o2
v70
v90
o2
v71
v91
o2
v72
v92
o2
v73
v93
o2
v74
v94
o2
v75
v95
o2
v76
v96
o2
v77
v97
o2
v78
v98
o2
v79
v99
n2
o5
o0
n-1
o54
10
o2
v80
v80
o2
v81
v81
o2
v82
v82
o2
v83
v83
o2
v84
v84
o2
v85
v85
o2
v86
v86
o2
v87
v87
o2
v88
v88
o2
v89
v89
n2
o5
o54
10
o2
v80
v90
o2
v81
v91
o2
v82
v92
o2
v83
v93
o2
v84
v94
o2
v85
v95
o2
v86
v96
o2
v87
v97
o2
v88
v98
o2
v89
v99
n2
o5
o0
n-1
o54
10
o2
v90
v90
o2
v91
v91
o2
v92
v92
o2
v93
v93
o2
v94
v94
o2
v95
v95
o2
v96
v96
o2
v97
v97
o2
v98
v98
o2
v99
v99
n2
o5
o0
n-0.2
o2
v0
v100
n2
o5
o0
o2
v0
v101
o2
v1
v103
n2
o5
o54
3
o2
v0
v102
o2
v1
v104
o2
v2
v106
n2
o5
o54
3
o2
v1
v105
o2
v2
v107
o2
v3
v109
n2
o5
o54
3
o2
v2
v108
o2
v3
v110
o2
v4
v112
n2
o5
o54
3
o2
v3
v111
o2
v4
v113
o2
v5
v115
n2
o5
o54
3
o2
v4
v114
o2
v5
v116
o2
v6
v118
n2
o5
o54
3
o2
v5
v117
o2
v6
v119
o2
v7
v121
n2
o5
o54
3
o2
v6
v120
o2
v7
v122
o2
v8
v124
n2
o5
o54
3
o2
v7
v123
o2
v8
v125
o2
v9
v126
n2
o5
o0
n0.1
o2
v10
v100
n2
o5
o0
n-0.4
o0
o2
v10
v101
o2
v11
v103
n2
o5
o54
4
n0.1
o2
v10
v102
o2
v11
v104
o2
v12
v106
n2
o5
o54
3
o2
v11
v105
o2
v12
v107
o2
v13
v109
n2
o5
o54
3
o2
v12
v108
o2
v13
v110
o2
v14
v112
n2
o5
o54
3
o2
v13
v111
o2
v14
v113
o2
v15
v115
n2
o5
o54
3
o2
v14
v114
o2
v15
v116
o2
v16
v118
n2
o5
o54
3
o2
v15
v117
o2
v16
v119
o2
v17
v121
n2
o5
o54
3
o2
v16
v120
o2
v17
v122
o2
v18
v124
n2
o5
o54
3
o2
v17
v123
o2
v18
v125
o2
v19
v126
n2
o5
o2
v20
v100
n2
o5
o54
3
n0.2
o2
v20
v101
o2
v21
v103
n2
o5
o0
n-0.6
o54
3
o2
v20
v102
o2
v21
v104
o2
v22
v106
n2
o5
o54
4
n0.2
o2
v21
v105
o2
v22
v107
o2
v23
v109
n2
o5
o54
3
o2
v22
v108
o2
v23
v110
o2
v24
v112
n2
o5
o54
3
o2
v23
v111
o2
v24
v113
o2
v25
v115
n2
o5
o54
3
o2
v24
v114
o2
v25
v116
o2
v26
v118
n2
o5
o54
3
o2
v25
v117
o2
v26
v119
o2
v27
v121
n2
o5
o54
3
o2
v26
v120
o2
v27
v122
o2
v28
v124
n2
o5
o54
3
o2
v27
v123
o2
v28
v125
o2
v29
v126
n2
o5
o2
v30
v100
n2
o5
o0
o2
v30
v101
o2
v31
v103
n2
o5
o54
4
n0.3
o2
v30
v102
o2
v31
v104
o2
v32
v106
n2
o5
o0
n-0.8
o54
3
o2
v31
v105
o2
v32
v107
o2
v33
v109
n2
o5
o54
4
n0.3
o2
v32
v108
o2
v33
v110
o2
v34
v112
n2
o5
o54
3
o2
v33
v111
o2
v34
v113
o2
v35
v115
n2
o5
o54
3
o2
v34
v114
o2
v35
v116
o2
v36
v118
n2
o5
o54
3
o2
v35
v117
o2
v36
v119
o2
v37
v121
n2
o5
o54
3
o2
v36
v120
o2
v37
v122
o2
v38
v124
n2
o5
o54
3
o2
v37
v123
o2
v38
v125
o2
v39
v126
n2
o5
o2
v40
v100
n2
o5
o0
o2
v40
v101
o2
v41
v103
n2
o5
o54
3
o2
v40
v102
o2
v41
v104
o2
v42
v106
n2
o5
o54
4
n0.4
o2
v41
v105
o2
v42
v107
o2
v43
v109
n2
o5
o0
n-1
o54
3
o2
v42
v108
o2
v43
v110
o2
v44
v112
n2
o5
o54
4
n0.4
o2
v43
v111
o2
v44
v113
o2
v45
v115
n2
o5
o54
3
o2
v44
v114
o2
v45
v116
o2
v46
v118
n2
o5
o54
3
o2
v45
v117
o2
v46
v119
o2
v47
v121
n2
o5
o54
3
o2
v46
v120
o2
v47
v122
o2
v48
v124
n2
o5
o54
3
o2
v47
v123
o2
v48
v125
o2
v49
v126
n2
o5
o2
v50
v100
n2
o5
o0
o2
v50
v101
o2
v51
v103
n2
o5
o54
3
o2
v50
v102
o2
v51
v104
o2
v52
v106
n2
o5
o54
3
o2
v51
v105
o2
v52
v107
o2
v53
v109
n2
o5
o54
4
n0.5
o2
v52
v108
o2
v53
v110
o2
v54
v112
n2
o5
o0
n-1.2
o54
3
o2
v53
v111
o2
v54
v113
o2
v55
v115
n2
o5
o54
4
n0.5
o2
v54
v114
o2
v55
v116
o2
v56
v118
n2
o5
o54
3
o2
v55
v117
o2
v56
v119
o2
v57
v121
n2
o5
o54
3
o2
v56
v120
o2
v57
v122
o2
v58
v124
n2
o5
o54
3
o2
v57
v123
o2
v58
v125
o2
v59
v126
n2
o5
o2
v60
v100
n2
o5
o0
o2
v60
v101
o2
v61
v103
n2
o5
o54
3
o2
v60
v102
o2
v61
v104
o2
v62
v106
n2
o5
o54
3
o2
v61
v105
o2
v62
v107
o2
v63
v109
n2
o5
o54
3
o2
v62
v108
o2
v63
v110
o2
v64
v112
n2
o5
o54
4
n0.6
o2
v63
v111
o2
v64
v113
o2
v65
v115
n2
o5
o0
n-1.4
o54
3
o2
v64
v114
o2
v65
v116
o2
v66
v118
n2
o5
o54
4
n0.6
o2
v65
v117
o2
v66
v119
o2
v67
v121
n2
o5
o54
3
o2
v66
v120
o2
v67
v122
o2
v68
v124
n2
o5
o54
3
o2
v67
v123
o2
v68
v125
o2
v69
v126
n2
o5
o2
v70
v100
n2
o5
o0
o2
v70
v101
o2
v71
v103
n2
o5
o54
3
o2
v70
v102
o2
v71
v104
o2
v72
v106
n2
o5
o54
3
o2
v71
v105
o2
v72
v107
o2
v73
v109
n2
o5
o54
3
o2
v72
v108
o2
v73
v110
o2
v74
v112
n2
o5
o54
3
o2
v73
v111
o2
v74
v113
o2
v75
v115
n2
o5
o54
4
n0.7
o2
v74
v114
o2
v75
v116
o2
v76
v118
n2
o5
o0
n-1.6
o54
3
o2
v75
v117
o2
v76
v119
o2
v77
v121
n2
o5
o54
4
n0.7
o2
v76
v120
o2
v77
v122
o2
v78
v124
n2
o5
o54
3
o2
v77
v123
o2
v78
v125
o2
v79
v126
n2
o5
o2
v80
v100
n2
o5
o0
o2
v80
v101
o2
v81
v103
n2
o5
o54
3
o2
v80
v102
o2
v81
v104
o2
v82
v106
n2
o5
o54
3
o2
v81
v105
o2
v82
v107
o2
v83
v109
n2
o5
o54
3
o2
v82
v108
o2
v83
v110
o2
v84
v112
n2
o5
o54
3
o2
v83
v111
o2
v84
v113
o2
v85
v115
n2
o5
o54
3
o2
v84
v114
o2
v85
v116
o2
v86
v118
n2
o5
o54
4
n0.8
o2
v85
v117
o2
v86
v119
o2
v87
v121
n2
o5
o0
n-1.8
o54
3
o2
v86
v120
o2
v87
v122
o2
v88
v124
n2
o5
o54
4
n0.8
o2
v87
v123
o2
v88
v125
o2
v89
v126
n2
o5
o2
v90
v100
n2
o5
o0
o2
v90
v101
o2
v91
v103
n2
o5
o54
3
o2
v90
v102
o2
v91
v104
o2
v92
v106
n2
o5
o54
3
o2
v91
v105
o2
v92
v107
o2
v93
v109
n2
o5
o54
3
o2
v92
v108
o2
v93
v110
o2
v94
v112
n2
o5
o54
3
o2
v93
v111
o2
v94
v113
o2
v95
v115
n2
o5
o54
3
o2
v94
v114
o2
v95
v116
o2
v96
v118
n2
o5
o54
3
o2
v95
v117
o2
v96
v119
o2
v97
v121
n2
o5
o54
4
n0.9
o2
v96
v120
o2
v97
v122
o2
v98
v124
n2
o5
o0
n-20
o54
3
o2
v97
v123
o2
v98
v125
o2
v99
v126
n2
k126
0
0
0
0
0
0
0
0
0
0
0
0
0
0
0
0
0
0
0
0
0
0
0
0
0
0
0
0
0
0
0
0
0
0
0
0
0
0
0
0
0
0
0
0
0
0
0
0
0
0
0
0
0
0
0
0
0
0
0
0
0
0
0
0
0
0
0
0
0
0
0
0
0
0
0
0
0
0
0
0
0
0
0
0
0
0
0
0
0
0
0
0
0
0
0
0
0
0
0
0
0
0
0
0
0
0
0
0
0
0
0
0
0
0
0
0
0
0
0
0
0
0
0
0
0
0
G0 127
0 0
1 0
2 0
3 0
4 0
5 0
6 0
7 0
8 0
9 0
10 0
11 0
12 0
13 0
14 0
15 0
16 0
17 0
18 0
19 0
20 0
21 0
22 0
23 0
24 0
25 0
26 0
27 0
28 0
29 0
30 0
31 0
32 0
33 0
34 0
35 0
36 0
37 0
38 0
39 0
40 0
41 0
42 0
43 0
44 0
45 0
46 0
47 0
48 0
49 0
50 0
51 0
52 0
53 0
54 0
55 0
56 0
57 0
58 0
59 0
60 0
61 0
62 0
63 0
64 0
65 0
66 0
67 0
68 0
69 0
70 0
71 0
72 0
73 0
74 0
75 0
76 0
77 0
78 0
79 0
80 0
81 0
82 0
83 0
84 0
85 0
86 0
87 0
88 0
89 0
90 0
91 0
92 0
93 0
94 0
95 0
96 0
97 0
98 0
99 0
100 0
101 0
102 0
103 0
104 0
105 0
106 0
107 0
108 0
109 0
110 0
111 0
112 0
113 0
114 0
115 0
116 0
117 0
118 0
119 0
120 0
121 0
122 0
123 0
124 0
125 0
126 0
